c File: flat175_3_0.col
c
c SOURCE: Joseph Culberson (joe@cs.ualberta.ca)
c DESCRIPTION: Quasi-random coloring problem
c              generated with flatness = 0
c                             probability = 0.041
c                             known coloring = 3
c                             random seed = 1016
c              Creation Date:  Wed Feb 24 10:54:53 1999
c Maximum degree = 8 Minimum degree = 0
c COLOR VERIFICATION: Using the permuted order
c under simple greedy yields the specified
c coloring number
c Color = 3 specified partitions = 3
c p edge 175 417
c cnf created by edge2cnf
p cnf 525 1951
-1 -2 0
-1 -3 0
-2 -3 0
1 2 3 0
-4 -5 0
-4 -6 0
-5 -6 0
4 5 6 0
-7 -8 0
-7 -9 0
-8 -9 0
7 8 9 0
-10 -11 0
-10 -12 0
-11 -12 0
10 11 12 0
-13 -14 0
-13 -15 0
-14 -15 0
13 14 15 0
-16 -17 0
-16 -18 0
-17 -18 0
16 17 18 0
-19 -20 0
-19 -21 0
-20 -21 0
19 20 21 0
-22 -23 0
-22 -24 0
-23 -24 0
22 23 24 0
-25 -26 0
-25 -27 0
-26 -27 0
25 26 27 0
-28 -29 0
-28 -30 0
-29 -30 0
28 29 30 0
-31 -32 0
-31 -33 0
-32 -33 0
31 32 33 0
-34 -35 0
-34 -36 0
-35 -36 0
34 35 36 0
-37 -38 0
-37 -39 0
-38 -39 0
37 38 39 0
-40 -41 0
-40 -42 0
-41 -42 0
40 41 42 0
-43 -44 0
-43 -45 0
-44 -45 0
43 44 45 0
-46 -47 0
-46 -48 0
-47 -48 0
46 47 48 0
-49 -50 0
-49 -51 0
-50 -51 0
49 50 51 0
-52 -53 0
-52 -54 0
-53 -54 0
52 53 54 0
-55 -56 0
-55 -57 0
-56 -57 0
55 56 57 0
-58 -59 0
-58 -60 0
-59 -60 0
58 59 60 0
-61 -62 0
-61 -63 0
-62 -63 0
61 62 63 0
-64 -65 0
-64 -66 0
-65 -66 0
64 65 66 0
-67 -68 0
-67 -69 0
-68 -69 0
67 68 69 0
-70 -71 0
-70 -72 0
-71 -72 0
70 71 72 0
-73 -74 0
-73 -75 0
-74 -75 0
73 74 75 0
-76 -77 0
-76 -78 0
-77 -78 0
76 77 78 0
-79 -80 0
-79 -81 0
-80 -81 0
79 80 81 0
-82 -83 0
-82 -84 0
-83 -84 0
82 83 84 0
-85 -86 0
-85 -87 0
-86 -87 0
85 86 87 0
-88 -89 0
-88 -90 0
-89 -90 0
88 89 90 0
-91 -92 0
-91 -93 0
-92 -93 0
91 92 93 0
-94 -95 0
-94 -96 0
-95 -96 0
94 95 96 0
-97 -98 0
-97 -99 0
-98 -99 0
97 98 99 0
-100 -101 0
-100 -102 0
-101 -102 0
100 101 102 0
-103 -104 0
-103 -105 0
-104 -105 0
103 104 105 0
-106 -107 0
-106 -108 0
-107 -108 0
106 107 108 0
-109 -110 0
-109 -111 0
-110 -111 0
109 110 111 0
-112 -113 0
-112 -114 0
-113 -114 0
112 113 114 0
-115 -116 0
-115 -117 0
-116 -117 0
115 116 117 0
-118 -119 0
-118 -120 0
-119 -120 0
118 119 120 0
-121 -122 0
-121 -123 0
-122 -123 0
121 122 123 0
-124 -125 0
-124 -126 0
-125 -126 0
124 125 126 0
-127 -128 0
-127 -129 0
-128 -129 0
127 128 129 0
-130 -131 0
-130 -132 0
-131 -132 0
130 131 132 0
-133 -134 0
-133 -135 0
-134 -135 0
133 134 135 0
-136 -137 0
-136 -138 0
-137 -138 0
136 137 138 0
-139 -140 0
-139 -141 0
-140 -141 0
139 140 141 0
-142 -143 0
-142 -144 0
-143 -144 0
142 143 144 0
-145 -146 0
-145 -147 0
-146 -147 0
145 146 147 0
-148 -149 0
-148 -150 0
-149 -150 0
148 149 150 0
-151 -152 0
-151 -153 0
-152 -153 0
151 152 153 0
-154 -155 0
-154 -156 0
-155 -156 0
154 155 156 0
-157 -158 0
-157 -159 0
-158 -159 0
157 158 159 0
-160 -161 0
-160 -162 0
-161 -162 0
160 161 162 0
-163 -164 0
-163 -165 0
-164 -165 0
163 164 165 0
-166 -167 0
-166 -168 0
-167 -168 0
166 167 168 0
-169 -170 0
-169 -171 0
-170 -171 0
169 170 171 0
-172 -173 0
-172 -174 0
-173 -174 0
172 173 174 0
-175 -176 0
-175 -177 0
-176 -177 0
175 176 177 0
-178 -179 0
-178 -180 0
-179 -180 0
178 179 180 0
-181 -182 0
-181 -183 0
-182 -183 0
181 182 183 0
-184 -185 0
-184 -186 0
-185 -186 0
184 185 186 0
-187 -188 0
-187 -189 0
-188 -189 0
187 188 189 0
-190 -191 0
-190 -192 0
-191 -192 0
190 191 192 0
-193 -194 0
-193 -195 0
-194 -195 0
193 194 195 0
-196 -197 0
-196 -198 0
-197 -198 0
196 197 198 0
-199 -200 0
-199 -201 0
-200 -201 0
199 200 201 0
-202 -203 0
-202 -204 0
-203 -204 0
202 203 204 0
-205 -206 0
-205 -207 0
-206 -207 0
205 206 207 0
-208 -209 0
-208 -210 0
-209 -210 0
208 209 210 0
-211 -212 0
-211 -213 0
-212 -213 0
211 212 213 0
-214 -215 0
-214 -216 0
-215 -216 0
214 215 216 0
-217 -218 0
-217 -219 0
-218 -219 0
217 218 219 0
-220 -221 0
-220 -222 0
-221 -222 0
220 221 222 0
-223 -224 0
-223 -225 0
-224 -225 0
223 224 225 0
-226 -227 0
-226 -228 0
-227 -228 0
226 227 228 0
-229 -230 0
-229 -231 0
-230 -231 0
229 230 231 0
-232 -233 0
-232 -234 0
-233 -234 0
232 233 234 0
-235 -236 0
-235 -237 0
-236 -237 0
235 236 237 0
-238 -239 0
-238 -240 0
-239 -240 0
238 239 240 0
-241 -242 0
-241 -243 0
-242 -243 0
241 242 243 0
-244 -245 0
-244 -246 0
-245 -246 0
244 245 246 0
-247 -248 0
-247 -249 0
-248 -249 0
247 248 249 0
-250 -251 0
-250 -252 0
-251 -252 0
250 251 252 0
-253 -254 0
-253 -255 0
-254 -255 0
253 254 255 0
-256 -257 0
-256 -258 0
-257 -258 0
256 257 258 0
-259 -260 0
-259 -261 0
-260 -261 0
259 260 261 0
-262 -263 0
-262 -264 0
-263 -264 0
262 263 264 0
-265 -266 0
-265 -267 0
-266 -267 0
265 266 267 0
-268 -269 0
-268 -270 0
-269 -270 0
268 269 270 0
-271 -272 0
-271 -273 0
-272 -273 0
271 272 273 0
-274 -275 0
-274 -276 0
-275 -276 0
274 275 276 0
-277 -278 0
-277 -279 0
-278 -279 0
277 278 279 0
-280 -281 0
-280 -282 0
-281 -282 0
280 281 282 0
-283 -284 0
-283 -285 0
-284 -285 0
283 284 285 0
-286 -287 0
-286 -288 0
-287 -288 0
286 287 288 0
-289 -290 0
-289 -291 0
-290 -291 0
289 290 291 0
-292 -293 0
-292 -294 0
-293 -294 0
292 293 294 0
-295 -296 0
-295 -297 0
-296 -297 0
295 296 297 0
-298 -299 0
-298 -300 0
-299 -300 0
298 299 300 0
-301 -302 0
-301 -303 0
-302 -303 0
301 302 303 0
-304 -305 0
-304 -306 0
-305 -306 0
304 305 306 0
-307 -308 0
-307 -309 0
-308 -309 0
307 308 309 0
-310 -311 0
-310 -312 0
-311 -312 0
310 311 312 0
-313 -314 0
-313 -315 0
-314 -315 0
313 314 315 0
-316 -317 0
-316 -318 0
-317 -318 0
316 317 318 0
-319 -320 0
-319 -321 0
-320 -321 0
319 320 321 0
-322 -323 0
-322 -324 0
-323 -324 0
322 323 324 0
-325 -326 0
-325 -327 0
-326 -327 0
325 326 327 0
-328 -329 0
-328 -330 0
-329 -330 0
328 329 330 0
-331 -332 0
-331 -333 0
-332 -333 0
331 332 333 0
-334 -335 0
-334 -336 0
-335 -336 0
334 335 336 0
-337 -338 0
-337 -339 0
-338 -339 0
337 338 339 0
-340 -341 0
-340 -342 0
-341 -342 0
340 341 342 0
-343 -344 0
-343 -345 0
-344 -345 0
343 344 345 0
-346 -347 0
-346 -348 0
-347 -348 0
346 347 348 0
-349 -350 0
-349 -351 0
-350 -351 0
349 350 351 0
-352 -353 0
-352 -354 0
-353 -354 0
352 353 354 0
-355 -356 0
-355 -357 0
-356 -357 0
355 356 357 0
-358 -359 0
-358 -360 0
-359 -360 0
358 359 360 0
-361 -362 0
-361 -363 0
-362 -363 0
361 362 363 0
-364 -365 0
-364 -366 0
-365 -366 0
364 365 366 0
-367 -368 0
-367 -369 0
-368 -369 0
367 368 369 0
-370 -371 0
-370 -372 0
-371 -372 0
370 371 372 0
-373 -374 0
-373 -375 0
-374 -375 0
373 374 375 0
-376 -377 0
-376 -378 0
-377 -378 0
376 377 378 0
-379 -380 0
-379 -381 0
-380 -381 0
379 380 381 0
-382 -383 0
-382 -384 0
-383 -384 0
382 383 384 0
-385 -386 0
-385 -387 0
-386 -387 0
385 386 387 0
-388 -389 0
-388 -390 0
-389 -390 0
388 389 390 0
-391 -392 0
-391 -393 0
-392 -393 0
391 392 393 0
-394 -395 0
-394 -396 0
-395 -396 0
394 395 396 0
-397 -398 0
-397 -399 0
-398 -399 0
397 398 399 0
-400 -401 0
-400 -402 0
-401 -402 0
400 401 402 0
-403 -404 0
-403 -405 0
-404 -405 0
403 404 405 0
-406 -407 0
-406 -408 0
-407 -408 0
406 407 408 0
-409 -410 0
-409 -411 0
-410 -411 0
409 410 411 0
-412 -413 0
-412 -414 0
-413 -414 0
412 413 414 0
-415 -416 0
-415 -417 0
-416 -417 0
415 416 417 0
-418 -419 0
-418 -420 0
-419 -420 0
418 419 420 0
-421 -422 0
-421 -423 0
-422 -423 0
421 422 423 0
-424 -425 0
-424 -426 0
-425 -426 0
424 425 426 0
-427 -428 0
-427 -429 0
-428 -429 0
427 428 429 0
-430 -431 0
-430 -432 0
-431 -432 0
430 431 432 0
-433 -434 0
-433 -435 0
-434 -435 0
433 434 435 0
-436 -437 0
-436 -438 0
-437 -438 0
436 437 438 0
-439 -440 0
-439 -441 0
-440 -441 0
439 440 441 0
-442 -443 0
-442 -444 0
-443 -444 0
442 443 444 0
-445 -446 0
-445 -447 0
-446 -447 0
445 446 447 0
-448 -449 0
-448 -450 0
-449 -450 0
448 449 450 0
-451 -452 0
-451 -453 0
-452 -453 0
451 452 453 0
-454 -455 0
-454 -456 0
-455 -456 0
454 455 456 0
-457 -458 0
-457 -459 0
-458 -459 0
457 458 459 0
-460 -461 0
-460 -462 0
-461 -462 0
460 461 462 0
-463 -464 0
-463 -465 0
-464 -465 0
463 464 465 0
-466 -467 0
-466 -468 0
-467 -468 0
466 467 468 0
-469 -470 0
-469 -471 0
-470 -471 0
469 470 471 0
-472 -473 0
-472 -474 0
-473 -474 0
472 473 474 0
-475 -476 0
-475 -477 0
-476 -477 0
475 476 477 0
-478 -479 0
-478 -480 0
-479 -480 0
478 479 480 0
-481 -482 0
-481 -483 0
-482 -483 0
481 482 483 0
-484 -485 0
-484 -486 0
-485 -486 0
484 485 486 0
-487 -488 0
-487 -489 0
-488 -489 0
487 488 489 0
-490 -491 0
-490 -492 0
-491 -492 0
490 491 492 0
-493 -494 0
-493 -495 0
-494 -495 0
493 494 495 0
-496 -497 0
-496 -498 0
-497 -498 0
496 497 498 0
-499 -500 0
-499 -501 0
-500 -501 0
499 500 501 0
-502 -503 0
-502 -504 0
-503 -504 0
502 503 504 0
-505 -506 0
-505 -507 0
-506 -507 0
505 506 507 0
-508 -509 0
-508 -510 0
-509 -510 0
508 509 510 0
-511 -512 0
-511 -513 0
-512 -513 0
511 512 513 0
-514 -515 0
-514 -516 0
-515 -516 0
514 515 516 0
-517 -518 0
-517 -519 0
-518 -519 0
517 518 519 0
-520 -521 0
-520 -522 0
-521 -522 0
520 521 522 0
-523 -524 0
-523 -525 0
-524 -525 0
523 524 525 0
-37 -1 0
-38 -2 0
-39 -3 0
-340 -1 0
-341 -2 0
-342 -3 0
-352 -1 0
-353 -2 0
-354 -3 0
-379 -1 0
-380 -2 0
-381 -3 0
-466 -1 0
-467 -2 0
-468 -3 0
-133 -4 0
-134 -5 0
-135 -6 0
-214 -4 0
-215 -5 0
-216 -6 0
-244 -4 0
-245 -5 0
-246 -6 0
-505 -4 0
-506 -5 0
-507 -6 0
-133 -7 0
-134 -8 0
-135 -9 0
-166 -7 0
-167 -8 0
-168 -9 0
-415 -7 0
-416 -8 0
-417 -9 0
-457 -7 0
-458 -8 0
-459 -9 0
-211 -10 0
-212 -11 0
-213 -12 0
-334 -10 0
-335 -11 0
-336 -12 0
-22 -13 0
-23 -14 0
-24 -15 0
-100 -13 0
-101 -14 0
-102 -15 0
-115 -13 0
-116 -14 0
-117 -15 0
-229 -13 0
-230 -14 0
-231 -15 0
-352 -13 0
-353 -14 0
-354 -15 0
-385 -13 0
-386 -14 0
-387 -15 0
-76 -16 0
-77 -17 0
-78 -18 0
-298 -16 0
-299 -17 0
-300 -18 0
-319 -16 0
-320 -17 0
-321 -18 0
-328 -16 0
-329 -17 0
-330 -18 0
-445 -16 0
-446 -17 0
-447 -18 0
-88 -19 0
-89 -20 0
-90 -21 0
-127 -19 0
-128 -20 0
-129 -21 0
-190 -19 0
-191 -20 0
-192 -21 0
-88 -22 0
-89 -23 0
-90 -24 0
-223 -22 0
-224 -23 0
-225 -24 0
-415 -22 0
-416 -23 0
-417 -24 0
-145 -25 0
-146 -26 0
-147 -27 0
-184 -25 0
-185 -26 0
-186 -27 0
-214 -25 0
-215 -26 0
-216 -27 0
-358 -25 0
-359 -26 0
-360 -27 0
-364 -25 0
-365 -26 0
-366 -27 0
-385 -25 0
-386 -26 0
-387 -27 0
-244 -28 0
-245 -29 0
-246 -30 0
-283 -28 0
-284 -29 0
-285 -30 0
-421 -28 0
-422 -29 0
-423 -30 0
-466 -28 0
-467 -29 0
-468 -30 0
-268 -31 0
-269 -32 0
-270 -33 0
-295 -31 0
-296 -32 0
-297 -33 0
-304 -31 0
-305 -32 0
-306 -33 0
-43 -34 0
-44 -35 0
-45 -36 0
-148 -34 0
-149 -35 0
-150 -36 0
-436 -34 0
-437 -35 0
-438 -36 0
-499 -34 0
-500 -35 0
-501 -36 0
-514 -34 0
-515 -35 0
-516 -36 0
-121 -37 0
-122 -38 0
-123 -39 0
-193 -37 0
-194 -38 0
-195 -39 0
-301 -37 0
-302 -38 0
-303 -39 0
-46 -40 0
-47 -41 0
-48 -42 0
-112 -40 0
-113 -41 0
-114 -42 0
-298 -40 0
-299 -41 0
-300 -42 0
-346 -40 0
-347 -41 0
-348 -42 0
-493 -40 0
-494 -41 0
-495 -42 0
-379 -43 0
-380 -44 0
-381 -45 0
-478 -43 0
-479 -44 0
-480 -45 0
-490 -43 0
-491 -44 0
-492 -45 0
-169 -46 0
-170 -47 0
-171 -48 0
-208 -46 0
-209 -47 0
-210 -48 0
-76 -49 0
-77 -50 0
-78 -51 0
-100 -49 0
-101 -50 0
-102 -51 0
-235 -49 0
-236 -50 0
-237 -51 0
-421 -49 0
-422 -50 0
-423 -51 0
-433 -49 0
-434 -50 0
-435 -51 0
-466 -49 0
-467 -50 0
-468 -51 0
-103 -52 0
-104 -53 0
-105 -54 0
-256 -52 0
-257 -53 0
-258 -54 0
-172 -55 0
-173 -56 0
-174 -57 0
-175 -55 0
-176 -56 0
-177 -57 0
-241 -55 0
-242 -56 0
-243 -57 0
-277 -55 0
-278 -56 0
-279 -57 0
-64 -58 0
-65 -59 0
-66 -60 0
-67 -58 0
-68 -59 0
-69 -60 0
-106 -58 0
-107 -59 0
-108 -60 0
-193 -58 0
-194 -59 0
-195 -60 0
-358 -58 0
-359 -59 0
-360 -60 0
-382 -58 0
-383 -59 0
-384 -60 0
-427 -58 0
-428 -59 0
-429 -60 0
-502 -58 0
-503 -59 0
-504 -60 0
-73 -61 0
-74 -62 0
-75 -63 0
-226 -61 0
-227 -62 0
-228 -63 0
-376 -61 0
-377 -62 0
-378 -63 0
-67 -64 0
-68 -65 0
-69 -66 0
-304 -64 0
-305 -65 0
-306 -66 0
-340 -64 0
-341 -65 0
-342 -66 0
-139 -67 0
-140 -68 0
-141 -69 0
-397 -67 0
-398 -68 0
-399 -69 0
-169 -70 0
-170 -71 0
-171 -72 0
-172 -70 0
-173 -71 0
-174 -72 0
-211 -70 0
-212 -71 0
-213 -72 0
-235 -70 0
-236 -71 0
-237 -72 0
-286 -70 0
-287 -71 0
-288 -72 0
-319 -70 0
-320 -71 0
-321 -72 0
-508 -70 0
-509 -71 0
-510 -72 0
-193 -73 0
-194 -74 0
-195 -75 0
-253 -73 0
-254 -74 0
-255 -75 0
-310 -73 0
-311 -74 0
-312 -75 0
-112 -76 0
-113 -77 0
-114 -78 0
-511 -76 0
-512 -77 0
-513 -78 0
-100 -79 0
-101 -80 0
-102 -81 0
-226 -79 0
-227 -80 0
-228 -81 0
-385 -79 0
-386 -80 0
-387 -81 0
-97 -82 0
-98 -83 0
-99 -84 0
-388 -82 0
-389 -83 0
-390 -84 0
-226 -85 0
-227 -86 0
-228 -87 0
-271 -85 0
-272 -86 0
-273 -87 0
-376 -85 0
-377 -86 0
-378 -87 0
-460 -85 0
-461 -86 0
-462 -87 0
-520 -85 0
-521 -86 0
-522 -87 0
-310 -88 0
-311 -89 0
-312 -90 0
-394 -88 0
-395 -89 0
-396 -90 0
-400 -88 0
-401 -89 0
-402 -90 0
-154 -91 0
-155 -92 0
-156 -93 0
-325 -91 0
-326 -92 0
-327 -93 0
-436 -91 0
-437 -92 0
-438 -93 0
-445 -91 0
-446 -92 0
-447 -93 0
-463 -91 0
-464 -92 0
-465 -93 0
-205 -94 0
-206 -95 0
-207 -96 0
-223 -94 0
-224 -95 0
-225 -96 0
-424 -94 0
-425 -95 0
-426 -96 0
-271 -97 0
-272 -98 0
-273 -99 0
-280 -97 0
-281 -98 0
-282 -99 0
-364 -97 0
-365 -98 0
-366 -99 0
-190 -100 0
-191 -101 0
-192 -102 0
-268 -100 0
-269 -101 0
-270 -102 0
-154 -103 0
-155 -104 0
-156 -105 0
-247 -103 0
-248 -104 0
-249 -105 0
-400 -103 0
-401 -104 0
-402 -105 0
-451 -103 0
-452 -104 0
-453 -105 0
-292 -106 0
-293 -107 0
-294 -108 0
-331 -106 0
-332 -107 0
-333 -108 0
-334 -106 0
-335 -107 0
-336 -108 0
-406 -106 0
-407 -107 0
-408 -108 0
-472 -106 0
-473 -107 0
-474 -108 0
-295 -109 0
-296 -110 0
-297 -111 0
-388 -109 0
-389 -110 0
-390 -111 0
-148 -112 0
-149 -113 0
-150 -114 0
-328 -112 0
-329 -113 0
-330 -114 0
-208 -115 0
-209 -116 0
-210 -117 0
-211 -115 0
-212 -116 0
-213 -117 0
-229 -115 0
-230 -116 0
-231 -117 0
-313 -115 0
-314 -116 0
-315 -117 0
-400 -115 0
-401 -116 0
-402 -117 0
-523 -115 0
-524 -116 0
-525 -117 0
-163 -118 0
-164 -119 0
-165 -120 0
-220 -118 0
-221 -119 0
-222 -120 0
-226 -118 0
-227 -119 0
-228 -120 0
-280 -118 0
-281 -119 0
-282 -120 0
-295 -118 0
-296 -119 0
-297 -120 0
-346 -118 0
-347 -119 0
-348 -120 0
-361 -118 0
-362 -119 0
-363 -120 0
-190 -121 0
-191 -122 0
-192 -123 0
-238 -121 0
-239 -122 0
-240 -123 0
-391 -121 0
-392 -122 0
-393 -123 0
-439 -121 0
-440 -122 0
-441 -123 0
-265 -124 0
-266 -125 0
-267 -126 0
-268 -124 0
-269 -125 0
-270 -126 0
-274 -124 0
-275 -125 0
-276 -126 0
-376 -124 0
-377 -125 0
-378 -126 0
-460 -124 0
-461 -125 0
-462 -126 0
-223 -127 0
-224 -128 0
-225 -129 0
-244 -127 0
-245 -128 0
-246 -129 0
-307 -127 0
-308 -128 0
-309 -129 0
-475 -127 0
-476 -128 0
-477 -129 0
-343 -130 0
-344 -131 0
-345 -132 0
-409 -130 0
-410 -131 0
-411 -132 0
-469 -130 0
-470 -131 0
-471 -132 0
-157 -133 0
-158 -134 0
-159 -135 0
-343 -133 0
-344 -134 0
-345 -135 0
-346 -133 0
-347 -134 0
-348 -135 0
-376 -133 0
-377 -134 0
-378 -135 0
-265 -136 0
-266 -137 0
-267 -138 0
-289 -136 0
-290 -137 0
-291 -138 0
-439 -136 0
-440 -137 0
-441 -138 0
-280 -139 0
-281 -140 0
-282 -141 0
-352 -139 0
-353 -140 0
-354 -141 0
-385 -139 0
-386 -140 0
-387 -141 0
-409 -139 0
-410 -140 0
-411 -141 0
-223 -142 0
-224 -143 0
-225 -144 0
-241 -142 0
-242 -143 0
-243 -144 0
-160 -148 0
-161 -149 0
-162 -150 0
-181 -148 0
-182 -149 0
-183 -150 0
-217 -148 0
-218 -149 0
-219 -150 0
-259 -148 0
-260 -149 0
-261 -150 0
-364 -148 0
-365 -149 0
-366 -150 0
-478 -148 0
-479 -149 0
-480 -150 0
-310 -151 0
-311 -152 0
-312 -153 0
-418 -151 0
-419 -152 0
-420 -153 0
-511 -151 0
-512 -152 0
-513 -153 0
-523 -151 0
-524 -152 0
-525 -153 0
-355 -154 0
-356 -155 0
-357 -156 0
-382 -154 0
-383 -155 0
-384 -156 0
-409 -154 0
-410 -155 0
-411 -156 0
-457 -154 0
-458 -155 0
-459 -156 0
-316 -157 0
-317 -158 0
-318 -159 0
-322 -157 0
-323 -158 0
-324 -159 0
-460 -157 0
-461 -158 0
-462 -159 0
-187 -160 0
-188 -161 0
-189 -162 0
-349 -160 0
-350 -161 0
-351 -162 0
-367 -160 0
-368 -161 0
-369 -162 0
-505 -160 0
-506 -161 0
-507 -162 0
-370 -163 0
-371 -164 0
-372 -165 0
-205 -166 0
-206 -167 0
-207 -168 0
-214 -166 0
-215 -167 0
-216 -168 0
-250 -166 0
-251 -167 0
-252 -168 0
-199 -169 0
-200 -170 0
-201 -171 0
-319 -169 0
-320 -170 0
-321 -171 0
-406 -169 0
-407 -170 0
-408 -171 0
-433 -169 0
-434 -170 0
-435 -171 0
-436 -169 0
-437 -170 0
-438 -171 0
-295 -172 0
-296 -173 0
-297 -174 0
-316 -172 0
-317 -173 0
-318 -174 0
-343 -172 0
-344 -173 0
-345 -174 0
-355 -172 0
-356 -173 0
-357 -174 0
-439 -172 0
-440 -173 0
-441 -174 0
-520 -172 0
-521 -173 0
-522 -174 0
-187 -175 0
-188 -176 0
-189 -177 0
-232 -175 0
-233 -176 0
-234 -177 0
-478 -175 0
-479 -176 0
-480 -177 0
-232 -178 0
-233 -179 0
-234 -180 0
-253 -178 0
-254 -179 0
-255 -180 0
-310 -178 0
-311 -179 0
-312 -180 0
-433 -178 0
-434 -179 0
-435 -180 0
-439 -178 0
-440 -179 0
-441 -180 0
-325 -181 0
-326 -182 0
-327 -183 0
-334 -181 0
-335 -182 0
-336 -183 0
-367 -181 0
-368 -182 0
-369 -183 0
-409 -181 0
-410 -182 0
-411 -183 0
-232 -184 0
-233 -185 0
-234 -186 0
-256 -184 0
-257 -185 0
-258 -186 0
-355 -184 0
-356 -185 0
-357 -186 0
-205 -187 0
-206 -188 0
-207 -189 0
-241 -187 0
-242 -188 0
-243 -189 0
-352 -187 0
-353 -188 0
-354 -189 0
-424 -187 0
-425 -188 0
-426 -189 0
-208 -190 0
-209 -191 0
-210 -192 0
-310 -190 0
-311 -191 0
-312 -192 0
-406 -190 0
-407 -191 0
-408 -192 0
-472 -190 0
-473 -191 0
-474 -192 0
-502 -190 0
-503 -191 0
-504 -192 0
-340 -193 0
-341 -194 0
-342 -195 0
-394 -193 0
-395 -194 0
-396 -195 0
-484 -193 0
-485 -194 0
-486 -195 0
-202 -196 0
-203 -197 0
-204 -198 0
-283 -196 0
-284 -197 0
-285 -198 0
-364 -196 0
-365 -197 0
-366 -198 0
-370 -196 0
-371 -197 0
-372 -198 0
-460 -196 0
-461 -197 0
-462 -198 0
-403 -199 0
-404 -200 0
-405 -201 0
-415 -199 0
-416 -200 0
-417 -201 0
-205 -202 0
-206 -203 0
-207 -204 0
-244 -202 0
-245 -203 0
-246 -204 0
-331 -202 0
-332 -203 0
-333 -204 0
-313 -205 0
-314 -206 0
-315 -207 0
-400 -205 0
-401 -206 0
-402 -207 0
-436 -205 0
-437 -206 0
-438 -207 0
-391 -208 0
-392 -209 0
-393 -210 0
-499 -208 0
-500 -209 0
-501 -210 0
-304 -211 0
-305 -212 0
-306 -213 0
-262 -214 0
-263 -215 0
-264 -216 0
-271 -214 0
-272 -215 0
-273 -216 0
-475 -214 0
-476 -215 0
-477 -216 0
-505 -214 0
-506 -215 0
-507 -216 0
-394 -217 0
-395 -218 0
-396 -219 0
-421 -220 0
-422 -221 0
-423 -222 0
-424 -220 0
-425 -221 0
-426 -222 0
-313 -223 0
-314 -224 0
-315 -225 0
-319 -223 0
-320 -224 0
-321 -225 0
-250 -226 0
-251 -227 0
-252 -228 0
-295 -226 0
-296 -227 0
-297 -228 0
-367 -226 0
-368 -227 0
-369 -228 0
-514 -226 0
-515 -227 0
-516 -228 0
-406 -229 0
-407 -230 0
-408 -231 0
-301 -232 0
-302 -233 0
-303 -234 0
-442 -232 0
-443 -233 0
-444 -234 0
-244 -238 0
-245 -239 0
-246 -240 0
-316 -238 0
-317 -239 0
-318 -240 0
-496 -238 0
-497 -239 0
-498 -240 0
-268 -244 0
-269 -245 0
-270 -246 0
-439 -244 0
-440 -245 0
-441 -246 0
-334 -247 0
-335 -248 0
-336 -249 0
-370 -247 0
-371 -248 0
-372 -249 0
-256 -250 0
-257 -251 0
-258 -252 0
-289 -250 0
-290 -251 0
-291 -252 0
-406 -250 0
-407 -251 0
-408 -252 0
-475 -250 0
-476 -251 0
-477 -252 0
-379 -253 0
-380 -254 0
-381 -255 0
-403 -253 0
-404 -254 0
-405 -255 0
-508 -256 0
-509 -257 0
-510 -258 0
-523 -256 0
-524 -257 0
-525 -258 0
-262 -259 0
-263 -260 0
-264 -261 0
-271 -259 0
-272 -260 0
-273 -261 0
-475 -259 0
-476 -260 0
-477 -261 0
-496 -259 0
-497 -260 0
-498 -261 0
-367 -262 0
-368 -263 0
-369 -264 0
-364 -265 0
-365 -266 0
-366 -267 0
-454 -265 0
-455 -266 0
-456 -267 0
-457 -265 0
-458 -266 0
-459 -267 0
-520 -265 0
-521 -266 0
-522 -267 0
-388 -268 0
-389 -269 0
-390 -270 0
-466 -268 0
-467 -269 0
-468 -270 0
-340 -271 0
-341 -272 0
-342 -273 0
-457 -271 0
-458 -272 0
-459 -273 0
-460 -271 0
-461 -272 0
-462 -273 0
-331 -274 0
-332 -275 0
-333 -276 0
-397 -274 0
-398 -275 0
-399 -276 0
-406 -274 0
-407 -275 0
-408 -276 0
-442 -274 0
-443 -275 0
-444 -276 0
-502 -274 0
-503 -275 0
-504 -276 0
-508 -274 0
-509 -275 0
-510 -276 0
-331 -277 0
-332 -278 0
-333 -279 0
-352 -277 0
-353 -278 0
-354 -279 0
-433 -277 0
-434 -278 0
-435 -279 0
-493 -280 0
-494 -281 0
-495 -282 0
-298 -283 0
-299 -284 0
-300 -285 0
-415 -283 0
-416 -284 0
-417 -285 0
-463 -283 0
-464 -284 0
-465 -285 0
-355 -286 0
-356 -287 0
-357 -288 0
-472 -286 0
-473 -287 0
-474 -288 0
-508 -286 0
-509 -287 0
-510 -288 0
-301 -289 0
-302 -290 0
-303 -291 0
-427 -289 0
-428 -290 0
-429 -291 0
-463 -289 0
-464 -290 0
-465 -291 0
-343 -298 0
-344 -299 0
-345 -300 0
-409 -298 0
-410 -299 0
-411 -300 0
-466 -298 0
-467 -299 0
-468 -300 0
-331 -301 0
-332 -302 0
-333 -303 0
-421 -301 0
-422 -302 0
-423 -303 0
-409 -304 0
-410 -305 0
-411 -306 0
-454 -304 0
-455 -305 0
-456 -306 0
-388 -307 0
-389 -308 0
-390 -309 0
-424 -307 0
-425 -308 0
-426 -309 0
-454 -307 0
-455 -308 0
-456 -309 0
-376 -310 0
-377 -311 0
-378 -312 0
-436 -310 0
-437 -311 0
-438 -312 0
-403 -313 0
-404 -314 0
-405 -315 0
-328 -316 0
-329 -317 0
-330 -318 0
-334 -316 0
-335 -317 0
-336 -318 0
-373 -316 0
-374 -317 0
-375 -318 0
-382 -316 0
-383 -317 0
-384 -318 0
-397 -316 0
-398 -317 0
-399 -318 0
-334 -319 0
-335 -320 0
-336 -321 0
-358 -322 0
-359 -323 0
-360 -324 0
-391 -322 0
-392 -323 0
-393 -324 0
-481 -322 0
-482 -323 0
-483 -324 0
-355 -325 0
-356 -326 0
-357 -327 0
-388 -325 0
-389 -326 0
-390 -327 0
-472 -325 0
-473 -326 0
-474 -327 0
-508 -328 0
-509 -329 0
-510 -330 0
-505 -331 0
-506 -332 0
-507 -333 0
-457 -334 0
-458 -335 0
-459 -336 0
-355 -337 0
-356 -338 0
-357 -339 0
-460 -337 0
-461 -338 0
-462 -339 0
-493 -337 0
-494 -338 0
-495 -339 0
-394 -340 0
-395 -341 0
-396 -342 0
-511 -340 0
-512 -341 0
-513 -342 0
-379 -343 0
-380 -344 0
-381 -345 0
-391 -349 0
-392 -350 0
-393 -351 0
-394 -352 0
-395 -353 0
-396 -354 0
-451 -352 0
-452 -353 0
-453 -354 0
-481 -352 0
-482 -353 0
-483 -354 0
-397 -355 0
-398 -356 0
-399 -357 0
-511 -355 0
-512 -356 0
-513 -357 0
-505 -358 0
-506 -359 0
-507 -360 0
-517 -358 0
-518 -359 0
-519 -360 0
-376 -361 0
-377 -362 0
-378 -363 0
-481 -361 0
-482 -362 0
-483 -363 0
-499 -361 0
-500 -362 0
-501 -363 0
-514 -361 0
-515 -362 0
-516 -363 0
-373 -364 0
-374 -365 0
-375 -366 0
-391 -364 0
-392 -365 0
-393 -366 0
-442 -367 0
-443 -368 0
-444 -369 0
-478 -367 0
-479 -368 0
-480 -369 0
-490 -373 0
-491 -374 0
-492 -375 0
-517 -373 0
-518 -374 0
-519 -375 0
-520 -373 0
-521 -374 0
-522 -375 0
-397 -376 0
-398 -377 0
-399 -378 0
-466 -379 0
-467 -380 0
-468 -381 0
-496 -379 0
-497 -380 0
-498 -381 0
-505 -379 0
-506 -380 0
-507 -381 0
-517 -385 0
-518 -386 0
-519 -387 0
-436 -391 0
-437 -392 0
-438 -393 0
-460 -391 0
-461 -392 0
-462 -393 0
-460 -394 0
-461 -395 0
-462 -396 0
-475 -394 0
-476 -395 0
-477 -396 0
-454 -397 0
-455 -398 0
-456 -399 0
-418 -400 0
-419 -401 0
-420 -402 0
-451 -403 0
-452 -404 0
-453 -405 0
-454 -403 0
-455 -404 0
-456 -405 0
-436 -409 0
-437 -410 0
-438 -411 0
-415 -412 0
-416 -413 0
-417 -414 0
-424 -412 0
-425 -413 0
-426 -414 0
-457 -412 0
-458 -413 0
-459 -414 0
-466 -415 0
-467 -416 0
-468 -417 0
-481 -415 0
-482 -416 0
-483 -417 0
-421 -418 0
-422 -419 0
-423 -420 0
-430 -418 0
-431 -419 0
-432 -420 0
-520 -418 0
-521 -419 0
-522 -420 0
-514 -421 0
-515 -422 0
-516 -423 0
-445 -424 0
-446 -425 0
-447 -426 0
-454 -430 0
-455 -431 0
-456 -432 0
-481 -430 0
-482 -431 0
-483 -432 0
-499 -430 0
-500 -431 0
-501 -432 0
-463 -442 0
-464 -443 0
-465 -444 0
-481 -442 0
-482 -443 0
-483 -444 0
-511 -442 0
-512 -443 0
-513 -444 0
-514 -457 0
-515 -458 0
-516 -459 0
-499 -463 0
-500 -464 0
-501 -465 0
-514 -466 0
-515 -467 0
-516 -468 0
-520 -469 0
-521 -470 0
-522 -471 0
-502 -493 0
-503 -494 0
-504 -495 0
-508 -493 0
-509 -494 0
-510 -495 0
-502 -499 0
-503 -500 0
-504 -501 0
